30

C          2.32140        0.22220        0.92520
C          3.20010       -0.12760       -0.28520
C          0.88870        0.40090        0.55010
C          4.65830       -0.34760        0.11710
C         -1.33030       -0.54020        0.22050
C          0.02130       -0.69160        0.57090
C         -1.80860        0.73730       -0.15630
C          0.41840        1.65720        0.17960
C         -0.92130        1.82590       -0.17160
C          5.51440       -0.73310       -1.07870
C         -2.21760       -1.62860        0.23600
C         -3.16010        0.88890       -0.50660
C         -3.55720       -1.46000       -0.11520
C         -4.02760       -0.20360       -0.48580
H          2.69690        1.13590        1.40390
H          2.40780       -0.56410        1.68650
H          3.14190        0.67610       -1.03040
H          2.81520       -1.03400       -0.76990
H          5.06030        0.56580        0.57060
H          4.72050       -1.13970        0.87240
H          0.39890       -1.67100        0.86020
H          1.08500        2.51550        0.15760
H         -1.26710        2.81680       -0.45840
H          5.49830        0.05160       -1.84180
H          5.15760       -1.66260       -1.53360
H          6.55310       -0.88380       -0.76830
H         -1.87200       -2.61980        0.52240
H         -3.54960        1.86170       -0.79960
H         -4.23310       -2.31010       -0.09910
H         -5.07060       -0.07310       -0.75910
