17

O          2.38240       -1.16340        0.00040
C          0.28560       -0.04400       -0.00030
C         -0.36330        1.19080       -0.00010
C         -0.45920       -1.22330       -0.00020
C          1.73850       -0.10160       -0.00030
C         -1.75710        1.24620        0.00020
C         -1.85300       -1.16790        0.00000
C         -2.50200        0.06680        0.00020
C          2.52820        1.19630        0.00010
H          0.17300        2.13440       -0.00010
H          0.02530       -2.19610       -0.00030
H         -2.26310        2.20730        0.00030
H         -2.43320       -2.08600        0.00010
H         -3.58720        0.11000        0.00040
H          2.31300        1.77440       -0.90250
H          3.59850        0.96500       -0.00030
H          2.31330        1.77350        0.90320
