18

O         -2.77190       -0.28450       -0.00010
O          3.48580        0.87150       -0.00010
C         -1.41120       -0.25800        0.00010
C          1.37800       -0.20360       -0.00020
C         -0.69040       -1.45210        0.00010
C         -0.73750        0.96330        0.00020
C          0.70420       -1.42490       -0.00010
C          0.65710        0.99060        0.00000
C          2.83210       -0.17530        0.00030
C         -3.44620        0.97300        0.00000
H         -1.20980       -2.40650        0.00020
H         -1.23480        1.92730        0.00030
H          1.25180       -2.36390       -0.00010
H          1.16190        1.95320        0.00010
H          3.34630       -1.15160        0.00090
H         -3.23180        1.54450       -0.90950
H         -3.23210        1.54440        0.90950
H         -4.52080        0.76340       -0.00020
