24

C          1.95170       -0.02500        0.21680
C          0.94300       -0.03360       -0.93400
C          3.38800       -0.00890       -0.30570
C         -0.47750       -0.01360       -0.43030
C          4.39480        0.04080        0.83250
C         -1.13020       -1.21250       -0.18390
C         -1.10960        1.20320       -0.22070
C         -2.44470       -1.19430        0.28240
C         -2.42400        1.22130        0.24570
C         -3.09160        0.02260        0.49720
H          1.80130       -0.90630        0.85320
H          1.78410        0.85440        0.85160
H          1.09790       -0.91870       -1.56430
H          1.11040        0.83100       -1.58940
H          3.57300       -0.90270       -0.91290
H          3.53890        0.86160       -0.95470
H          4.29180       -0.83180        1.48530
H          4.25790        0.94200        1.43860
H          5.41490        0.04990        0.43600
H         -0.63440       -2.16540       -0.34620
H         -0.59760        2.14210       -0.41160
H         -2.96430       -2.12760        0.47880
H         -2.92770        2.16880        0.41370
H         -4.11490        0.03680        0.86060
