17

O          2.24520        0.00000        0.29710
C         -1.83510        0.00020       -0.11360
C         -1.06370       -1.25800        0.27910
C         -1.06330        1.25800        0.27950
C          0.32530       -1.28630       -0.34370
C          0.32530        1.28610       -0.34410
C          1.06630        0.00000       -0.05420
H         -2.01920        0.00030       -1.19480
H         -2.81330        0.00030        0.38040
H         -1.62420       -2.14740       -0.02980
H         -0.97460       -1.29770        1.37200
H         -0.97370        1.29720        1.37240
H         -1.62370        2.14760       -0.02880
H          0.26360       -1.40500       -1.43090
H          0.89700       -2.12860        0.05980
H          0.89710        2.12850        0.05880
H          0.26320        1.40430       -1.43130
