! DLPNO-CCSD cc-pVDZ cc-pVDZ/C TightSCF
%pal nprocs 8 end
%maxcore 2000
* xyz 0 1
C             -3.18770            1.57880           -2.24860
C             -4.03900            1.45540           -1.12450
C             -4.50050            0.26140           -0.68020
C             -2.76750            0.34920           -2.88450
C             -3.34280           -0.82810           -2.40320
C             -4.21460           -0.87510           -1.33910
C             -0.68410            1.38250           -3.43930
C             -1.45100            0.22560           -3.45360
C             -0.72900           -1.02680           -3.48990
C             -1.41490           -2.16750           -2.96340
C             -2.68700           -2.04060           -2.42990
C             -0.68760           -3.21540           -2.42080
C              0.70370            1.38120           -3.44290
C              1.46530            0.21940           -3.45550
C              0.73670           -1.02930           -3.48950
C              2.68680           -2.04820           -2.42870
C              1.41030           -2.17570           -2.96200
C              0.68040           -3.22110           -2.42160
C              4.06580            1.43890           -1.14080
C              3.20950            1.57400           -2.26230
C              2.78470            0.33850           -2.88960
C              3.35420           -0.84310           -2.40730
C             -4.21200           -0.86020            1.35900
C             -4.04960           -2.03780            0.69030
C             -4.50300            0.27420            0.69620
C             -4.04470           -2.04950           -0.68010
C             -3.14290           -2.81370           -1.34680
C             -2.32390           -3.71320           -0.69720
C             -1.12220           -3.96570           -1.32530
C             -3.19160            1.59710            2.24220
C             -2.77370            0.37060            2.88990
C             -4.04470            1.47090            1.12030
C             -3.34130           -0.81690            2.42260
C             -2.68830           -2.02530            2.44920
C             -0.68690           -3.19360            2.44080
C             -1.41280           -2.14440            2.98350
C             -0.73350           -0.99580            3.50250
C             -1.45580            0.25680            3.45700
C             -0.68620            1.40880            3.43270
C             -2.32780           -3.70410            0.72970
C             -3.14590           -2.79930            1.36810
C             -1.12170           -3.95210            1.35060
C             -3.88760            2.25340           -0.00710
C             -1.10560            2.59350            2.85280
C             -2.32570            2.70680            2.21660
C             -2.30230            3.55590            1.09510
C             -3.03300            3.26230           -0.02030
C              0.01430            3.30690            2.47790
C              0.00980            4.14440            1.37630
C             -1.16370            4.20870            0.67230
C              1.18790            4.19580            0.67140
C              0.73260           -1.00370            3.49800
C              1.46530            0.24430            3.45330
C              0.70000            1.40380            3.43150
C              1.13290            2.58810            2.85470
C              2.34920            2.69650            2.21410
C              2.32480            3.54070            1.09150
C             -1.10620            2.57370           -2.87210
C             -2.32710            2.69310           -2.23670
C             -2.29860            3.56230           -1.13170
C             -1.16180            4.21740           -0.72120
C              1.19760            4.19910           -0.72190
C              0.01550            4.14320           -1.42150
C              0.01900            3.28950           -2.51160
C              1.13850            2.57210           -2.88390
C              2.33440            3.54750           -1.13990
C              2.35690            2.68950           -2.24870
C              3.05800            3.23930           -0.02030
C              4.06410            1.44710            1.12500
C              3.90370            2.22090           -0.00790
C              0.68200           -3.19690            2.44030
C              1.41240           -2.14940            2.97640
C              2.68510           -2.02880            2.44070
C              3.35280           -0.82230            2.41180
C              2.78300            0.36250            2.88830
C              3.20870            1.58290            2.24610
C             -0.00260           -4.36050           -0.66140
C              0.00280           -4.34980            0.69590
C              2.32090           -3.71220            0.71990
C              1.12490           -3.95870            1.35690
C              3.14000           -2.80000            1.35570
C              4.05190           -2.05850           -0.67730
C              3.14140           -2.82000           -1.34420
C              2.31700           -3.72330           -0.70630
C              1.12010           -3.97610           -1.33260
C              4.05100           -2.04340            0.69280
C              4.52750            0.25590            0.67980
C              4.53250            0.24670           -0.69850
C              4.23590           -0.88750           -1.35050
C              4.23350           -0.87000            1.35210
*
