! RHF cc-pVDZ RIJCOSX TightSCF
%pal nprocs 8 end
%maxcore 2000
* xyz 0 1
C              1.12000            3.56480           -9.79680
C              0.34610            2.56340          -10.16300
C             -0.90690            2.94750          -10.02080
C             -0.90530            4.18550           -9.57030
C              0.34740            4.56910           -9.43340
C              9.72990            0.69780           -3.84550
C              9.16880            0.69860           -5.03850
C              8.82070            1.93800           -5.32240
C              9.16770            2.70140           -4.30630
C              9.73020            1.93600           -3.39360
C              2.37840           -7.56810           -6.85500
C              1.81860           -6.80400           -7.77090
C              2.72610           -5.94750           -8.19630
C              3.84560           -6.18480           -7.54200
C              3.63290           -7.18820           -6.71500
C             -8.25920           -3.55560           -5.39410
C             -8.04220           -2.55330           -6.22270
C             -7.13610           -2.93710           -7.09850
C             -6.79180           -4.17600           -6.81340
C             -7.48490           -4.55850           -5.75920
C             -7.48280            7.19040           -1.48110
C             -6.78960            7.57390           -2.53490
C             -7.13720            6.80920           -3.54960
C             -8.04590            5.95490           -3.12540
C             -8.25970            6.19070           -1.84620
C              3.63390            9.82210           -0.52410
C              3.84560            9.58430           -1.80350
C              2.72470            9.82210           -2.45330
C              1.81870           10.20680           -1.57780
C              2.37990           10.20580           -0.38500
C             -1.11930           -3.56480            9.79770
C             -0.34600           -4.56870            9.43420
C              0.90700           -4.18320            9.57310
C              0.90750           -2.94610           10.02620
C             -0.34600           -2.56330           10.16500
C             -9.72450           -1.93660            3.39420
C             -9.16450           -2.70130            4.30920
C             -8.82020           -1.93530            5.32370
C             -9.16830           -0.69730            5.03800
C             -9.72800           -0.69720            3.84420
C             -2.38040          -10.20760            0.38490
C             -1.82030          -10.20850            1.57850
C             -2.72720           -9.82560            2.45520
C             -3.84670           -9.58710            1.80150
C             -3.63390           -9.82440            0.52310
C              8.25390           -6.18930            1.84480
C              8.03890           -5.95330            3.12440
C              7.13300           -6.81090            3.54850
C              6.78920           -7.57520            2.53220
C              7.48260           -7.19320            1.47950
C              7.48520            4.55850            5.75840
C              6.79080            4.17240            6.81070
C              7.13800            2.93420            7.09660
C              8.04670            2.55310            6.22250
C              8.26070            3.55620            5.39440
C             -3.63280            7.18450            6.71430
C             -3.84480            6.18260            7.54350
C             -2.72490            5.94730            8.19590
C             -1.81960            6.80380            7.76640
C             -2.38010            7.57090            6.85320
C             -0.15990            5.61220            8.74250
C             -1.13910            4.68550            9.20440
C              0.28180           -0.39860           10.38060
C              1.63700           -0.81410           10.22990
C              5.35900            2.70130            8.48050
C              4.98570            4.04120            8.16920
C              1.18160            5.33340            8.76760
C              3.75130            4.54780            8.48170
C             -0.80750            3.45410            9.70330
C             -0.09770            0.91440           10.29090
C              2.65210            0.07320            9.98510
C              4.51170            1.82890            9.11120
C              1.55120            4.09130            9.32830
C              0.57070            3.16380            9.78960
C              0.93810            1.85220           10.09330
C              2.29430            1.43820            9.94190
C              3.25410            2.34560            9.49070
C              2.87900            3.68580            9.18050
C              7.80940            0.38900            6.84300
C              6.82820            0.80100            7.79040
C              3.10640           -2.71410            9.53870
C              3.10660           -4.05270            9.05060
C              6.82700           -5.62170            5.45040
C              7.80720           -4.69420            4.99150
C              7.98210           -0.92390            6.49100
C              7.98210           -3.46290            5.56580
C              5.99170           -0.08580            8.41480
C              4.13280           -1.84200            9.28770
C              4.13240           -4.56040            8.29830
C              5.99190           -5.34280            6.50050
C              7.16890           -1.86370            7.16030
C              6.18700           -1.45040            8.10950
C              5.22710           -2.35800            8.56050
C              5.22740           -3.69820            8.07220
C              6.18810           -4.10210            7.14390
C              7.16890           -3.17540            6.68330
C              4.98540           -8.34840            3.66150
C              5.35800           -7.52190            4.76100
C              1.63710           -5.95150            8.35890
C              0.28170           -6.36520            8.20810
C             -1.14000           -9.50740            4.03750
C             -0.15880           -9.92040            3.09030
C              3.75160           -8.93770            3.57410
C              1.18210           -9.72240            3.28900
C              4.51130           -7.25850            5.80440
C              2.65130           -6.47540            7.60100
C             -0.09760           -7.31420            7.29510
C             -0.80870           -8.88340            5.21190
C              2.87960           -8.72550            4.66400
C              3.25330           -7.89740            5.76370
C              2.29230           -7.49330            6.69160
C              0.93630           -7.90750            6.53980
C              0.57020           -8.71780            5.46410
C              1.55190           -9.13130            4.51620
C             -4.72700           -8.52410            3.59730
C             -3.51600           -8.77960            4.30350
C             -2.09350           -5.63960            8.47230
C             -2.93200           -4.55670            8.86620
C             -7.53240           -3.58360            6.19350
C             -7.90650           -4.41090            5.09460
C             -5.66230           -7.63080            4.04990
C             -7.25110           -5.57640            4.79730
C             -3.20440           -8.15040            5.47920
C             -2.49320           -6.58220            7.56180
C             -4.19360           -4.38380            8.36200
C             -6.49190           -3.89790            7.02690
C             -5.38960           -7.00960            5.28780
C             -4.17640           -7.26570            5.99320
C             -3.81020           -6.45550            7.06920
C             -4.64910           -5.37160            7.46310
C             -5.83600           -5.12150            6.77340
C             -6.21010           -5.94900            5.67430
C             -7.90730            0.10390            6.73920
C             -7.53290           -1.23560            7.04810
C             -2.93090           -2.20860            9.72090
C             -2.09500           -1.12380           10.11560
C             -3.51680            3.96120            8.94020
C             -4.72890            4.21660            8.23570
C             -7.25270            1.18920            7.25920
C             -5.66520            3.24330            8.00710
C             -6.49190           -1.53050            7.88850
C             -4.19310           -2.01650            9.22360
C             -2.49340            0.18330           10.02440
C             -3.20420            2.72320            9.43680
C             -6.21070            0.91040            8.17040
C             -5.83480           -0.43020            8.48080
C             -4.64730           -0.68060            9.17090
C             -3.80980            0.40440            9.56500
C             -4.17760            1.71610            9.26170
C             -5.39050            1.97220            8.55690
C              4.72630           -4.21700           -8.23650
C              3.51490           -3.95970           -8.94060
C              2.09390            1.12480          -10.11510
C              2.93030            2.20950           -9.72030
C              7.53350            1.23420           -7.04750
C              7.90690           -0.10540           -6.73820
C              5.66330           -3.24370           -8.00680
C              7.25190           -1.18980           -7.25890
C              3.20390           -2.72180           -9.43680
C              2.49410           -0.18180          -10.02360
C              4.19290            2.01730           -9.22310
C              6.49220            1.53110           -7.88740
C              5.38920           -1.97210           -8.55650
C              4.17630           -1.71410           -9.26140
C              3.81040           -0.40180           -9.56460
C              4.64870            0.68200           -9.16910
C              5.83600            0.43010           -8.47960
C              6.21020           -0.91090           -8.16990
C              7.90710            4.40950           -5.09560
C              7.53170            3.58350           -6.19400
C              2.93240            4.55790           -8.86590
C              2.09340            5.64030           -8.47220
C              3.51590            8.77850           -4.30230
C              4.72750            8.52260           -3.59660
C              7.25160            5.57530           -4.79710
C              5.66380            7.62990           -4.04870
C              6.49120            3.89830           -7.02660
C              4.19380            4.38400           -8.36210
C              2.49270            6.58290           -7.56160
C              3.20380            8.15020           -5.47870
C              6.20990            5.94850           -5.67370
C              5.83410            5.12150           -6.77350
C              4.64720            5.37330           -7.46310
C              3.80920            6.45730           -7.06780
C              4.17700            7.26660           -5.99200
C              5.38960            7.01000           -5.28720
C              0.15920            9.91910           -3.09080
C              1.14000            9.50520           -4.03780
C             -0.28240            6.36530           -8.20770
C             -1.63780            5.95060           -8.35830
C             -5.35920            7.52080           -4.75990
C             -4.98590            8.34730           -3.66050
C             -1.18210            9.72120           -3.28840
C             -3.75200            8.93670           -3.57290
C              0.80810            8.88230           -5.21210
C              0.09650            7.31420           -7.29480
C             -2.65230            6.47410           -7.60030
C             -4.51240            7.25730           -5.80350
C             -1.55210            9.13000           -4.51550
C             -0.57100            8.71590           -5.46450
C             -0.93880            7.90610           -6.54020
C             -2.29510            7.49200           -6.69020
C             -3.25500            7.89720           -5.76180
C             -2.88000            8.72470           -4.66280
C             -7.80930            4.69470           -4.99240
C             -6.82840            5.62140           -5.45110
C             -3.10680            4.05080           -9.04950
C             -3.10620            2.71170           -9.53720
C             -6.83030           -0.80230           -7.78990
C             -7.81010           -0.38820           -6.84200
C             -7.98330            3.46340           -5.56670
C             -7.98330            0.92430           -6.49110
C             -5.99290            5.34160           -6.50040
C             -4.13300            4.55860           -8.29770
C             -4.13330            1.84050           -9.28750
C             -5.99290            0.08420           -8.41540
C             -7.16970            3.17410           -6.68360
C             -6.18770            4.10070           -7.14440
C             -5.22750            3.69550           -8.07310
C             -5.22830            2.35490           -8.56060
C             -6.18920            1.44860           -8.11000
C             -7.17010            1.86280           -7.16170
C             -4.98650           -4.04110           -8.17300
C             -5.35990           -2.70150           -8.48330
C             -1.63740            0.81220          -10.22950
C             -0.28220            0.39820          -10.38010
C              1.13820           -4.68710           -9.20520
C              0.15840           -5.61300           -8.74380
C             -3.75210           -4.54850           -8.48350
C             -1.18260           -5.33390           -8.76890
C             -4.51220           -1.82950           -9.11310
C             -2.65270           -0.07410           -9.98550
C              0.09800           -0.91440          -10.29080
C              0.80880           -3.45430           -9.70390
C             -2.87970           -3.68610           -9.18200
C             -3.25380           -2.34490           -9.49230
C             -2.29280           -1.43870           -9.94340
C             -0.93660           -1.85390          -10.09340
C             -0.57040           -3.16600           -9.79020
C             -1.55190           -4.09200           -9.32950
C             -3.83940            8.37600            4.79960
C             -2.48400            8.79000            4.94970
C              0.35840           10.36510            0.62490
C             -0.24670           10.36610           -0.66560
C             -5.39160            8.79450           -1.23680
C             -6.13990            8.38070           -0.09690
C             -4.53200            8.54420            3.62920
C             -5.68200            8.54620            1.18340
C             -1.78240            9.38350            3.93370
C             -0.36190           10.17020            1.77360
C             -1.59130           10.17230           -0.84300
C             -4.16120            9.38760           -1.12840
C             -3.84670            9.20190            2.58480
C             -2.49000            9.61600            2.73500
C             -1.75690           10.02260            1.61910
C             -2.36390           10.02330            0.32870
C             -3.69120            9.61840            0.18200
C             -4.44050            9.20360            1.32160
C             -5.79020            5.66950            6.50160
C             -5.56040            6.75320            5.60520
C             -7.86000            6.75680            0.70990
C             -8.69740            5.67350            0.31340
C             -9.57510            1.55750            3.71430
C             -8.96940            1.55730            5.00470
C             -6.73550            4.70760            6.25970
C             -8.32350            2.65430            5.51130
C             -6.26590            6.90840            4.44170
C             -7.41490            6.91010            1.99620
C             -9.11390            4.71110            1.19550
C             -9.55280            2.65460            2.89350
C             -7.51300            4.87520            5.09320
C             -7.28180            5.95970            4.19610
C             -7.87590            5.95990            2.93300
C             -8.71340            4.87510            2.53890
C             -8.93980            3.81380            3.41660
C             -8.33360            3.81380            4.70700
C            -10.23020           -1.23150            1.30220
C            -10.23120            0.10840            1.78740
C             -9.35580            4.22320           -1.61320
C             -9.12450            3.96740           -2.99570
C             -9.12230           -1.11610           -4.84490
C             -9.35410           -2.19910           -3.94800
C            -10.21350           -1.52500           -0.03630
C             -9.77590           -2.00810           -2.65900
C            -10.21420            1.19280            0.95120
C             -9.77670            3.24930           -0.74630
C             -9.30800            2.73030           -3.55340
C             -9.30740            0.19080           -4.47670
C            -10.25050           -0.42390           -0.91930
C            -10.25060            0.91720           -0.43230
C            -10.02510            1.97870           -1.31010
C             -9.79410            1.72210           -2.69400
C             -9.79430            0.41050           -3.17030
C            -10.02510           -0.67360           -2.27380
C             -8.96810           -4.40810            2.83290
C             -9.57350           -3.58100            1.84320
C             -8.69650           -4.54890           -3.40650
C             -7.85900           -5.63230           -3.80020
C             -5.55910           -8.77720           -0.04600
C             -5.78950           -8.52230            1.33690
C             -8.32170           -5.57400            2.51700
C             -6.73410           -7.62890            1.76900
C             -9.55130           -3.89260            0.50990
C             -9.11270           -4.37670           -2.11230
C             -7.41380           -6.57550           -2.91210
C             -6.26400           -8.14700           -1.03780
C             -8.33110           -5.94540            1.15490
C             -8.93750           -5.11610            0.16480
C             -8.71100           -5.36660           -1.18960
C             -7.87280           -6.45130           -1.58330
C             -7.27980           -7.26260           -0.61480
C             -7.51160           -7.00710            0.76850
C             -2.48390           -9.91570           -1.85780
C             -3.83970           -9.50170           -1.70980
C             -6.13980           -6.35780           -5.46230
C             -5.39180           -5.94220           -6.60190
C             -0.24690           -7.51420           -7.17290
C              0.35870           -8.34180           -6.18360
C             -1.78180           -9.71660           -3.01780
C             -0.36040           -8.93120           -5.17770
C             -4.53110           -8.87720           -2.71370
C             -5.68130           -7.30660           -4.58760
C             -4.16110           -6.46490           -6.90040
C             -1.59130           -7.24990           -7.18530
C             -2.49000           -9.12410           -4.08560
C             -3.84640           -8.70930           -3.93620
C             -4.43970           -7.89840           -4.90490
C             -3.68950           -7.48380           -6.04450
C             -2.36230           -7.88970           -6.19120
C             -1.75580           -8.71840           -5.20170
C              0.24620          -10.36660            0.66560
C             -0.35810          -10.36570           -0.62500
C              2.48450           -8.78970           -4.94970
C              3.84000           -8.37580           -4.79920
C              6.14010           -8.38150            0.09670
C              5.39160           -8.79570            1.23700
C              1.59070          -10.17280            0.84420
C              4.16100           -9.38850            1.13000
C              0.36200          -10.17020           -1.77330
C              1.78270           -9.38350           -3.93330
C              4.53160           -8.54420           -3.62830
C              5.68200           -8.54630           -1.18330
C              2.36330          -10.02330           -0.32830
C              1.75700          -10.02190           -1.61980
C              2.49130           -9.61590           -2.73510
C              3.84730           -9.20190           -2.58380
C              4.44060           -9.20370           -1.32080
C              3.69100           -9.61870           -0.18110
C              8.69610           -5.67220           -0.31390
C              7.85910           -6.75620           -0.70930
C              5.56010           -6.75310           -5.60580
C              5.78960           -5.66920           -6.50220
C              8.96970           -1.55760           -5.00490
C              9.57570           -1.55790           -3.71470
C              9.11320           -4.70990           -1.19580
C              9.55330           -2.65400           -2.89310
C              7.41450           -6.90900           -1.99640
C              6.26550           -6.90790           -4.44210
C              6.73490           -4.70780           -6.25910
C              8.32320           -2.65360           -5.51150
C              8.71250           -4.87540           -2.53890
C              7.87420           -5.95940           -2.93430
C              7.28130           -5.95850           -4.19790
C              7.51320           -4.87320           -5.09340
C              8.33380           -3.81270           -4.70670
C              8.93980           -3.81310           -3.41600
C              9.12040           -3.96670            2.99420
C              9.35200           -4.22140            1.61150
C             10.23280           -0.10740           -1.78860
C             10.23290            1.23200           -1.30090
C              9.35590            2.19940            3.94870
C              9.12350            1.11580            4.84500
C              9.30600           -2.72930            3.55200
C              9.30710           -0.19120            4.47730
C              9.77530           -3.24720            0.74610
C             10.21510           -1.19170           -0.95180
C             10.21560            1.52660            0.03690
C              9.77750            2.00900            2.65960
C              9.79330           -1.72180            2.69220
C             10.02460           -1.97640            1.30810
C             10.25190           -0.91440            0.43150
C             10.25190            0.42560            0.91980
C             10.02590            0.67440            2.27430
C              9.79410           -0.41020            3.17030
C              7.86170            5.63160            3.80020
C              8.69850            4.54790            3.40660
C              9.57580            3.58150           -1.84350
C              8.96960            4.40850           -2.83340
C              5.79110            8.52220           -1.33500
C              5.56000            8.77640            0.04770
C              7.41550            6.57520            2.91230
C              6.26560            8.14680            1.03840
C              9.11450            4.37780            2.11220
C              9.55350            3.89370           -0.51000
C              8.32330            5.57420           -2.51640
C              6.73520            7.62890           -1.76900
C              7.87470            6.45120            1.58330
C              8.71320            5.36670            1.18840
C              8.93980            5.11750           -0.16620
C              8.33270            5.94660           -1.15510
C              7.51300            7.00770           -0.76850
C              7.28160            7.26280            0.61500
C             -0.35810            8.34160            6.18450
C              0.24690            7.51260            7.17280
C              5.39160            5.94190            6.60010
C              6.14080            6.35660            5.46120
C              3.83940            9.50230            1.70910
C              2.48390            9.91560            1.85860
C              0.36150            8.93070            5.17840
C              1.78170            9.71680            3.01840
C              1.59150            7.24990            7.18420
C              4.16110            6.46470            6.89900
C              5.68190            7.30630            4.58720
C              4.53200            8.87740            2.71290
C              1.75660            8.71810            5.20180
C              2.36400            7.88890            6.19060
C              3.69150            7.48400            6.04280
C              4.44040            7.89920            4.90260
C              3.84620            8.71070            3.93510
C              2.49020            9.12450            4.08580
C              1.94260           -2.14680           10.02430
C              6.47600            2.13440            7.89330
C              3.90430           -0.45390            9.54160
C              4.85160            0.44080            9.09660
C              5.73490            4.78780            7.27870
C             -0.53210            6.70130            7.97630
C              3.36070            5.77540            7.86180
C              2.05120            6.17540            8.00750
C             -2.47350            4.86740            8.88970
C             -0.74260           -1.32650           10.32200
C             -1.85330            2.48960            9.84200
C             -1.49130            1.19540           10.14150
C              1.94130           -4.79830            9.05810
C              6.47380           -6.71010            4.67400
C              3.90400           -5.78640            7.60040
C              4.85160           -6.18530            6.68460
C              8.41550           -4.87440            3.76240
C              8.41950            1.31630            6.01740
C              8.75620           -2.49730            4.85100
C              8.75660           -1.20370            5.32230
C             -0.74200           -5.61750            8.75990
C             -2.47500           -9.44300            3.68070
C             -1.49140           -7.43310            7.00030
C             -1.85360           -8.23260            5.93890
C             -0.53250          -10.26240            1.80310
C              5.73420           -8.34780            2.49900
C              2.05120           -9.87920            2.16500
C              3.36050           -9.47950            2.31060
C             -2.39940           -3.47220            9.54000
C             -8.00450           -2.28670            6.28430
C             -4.82630           -3.11900            8.57090
C             -5.99750           -2.87150            7.89060
C             -8.74520           -3.92420            4.10850
C             -4.87310           -8.93530            2.28540
C             -7.48750           -6.16470            3.51610
C             -6.67810           -7.21170            3.13520
C             -4.87370            5.37540            7.49400
C             -8.74630            0.36700            5.67100
C             -6.68060            3.50990            7.03750
C             -7.48960            2.46340            6.65640
C              2.39970            3.47380           -9.53920
C              8.00420            2.28710           -6.28370
C              4.82650            3.11960           -8.57040
C              5.99750            2.87190           -7.89000
C              8.74660           -0.36620           -5.67050
C              4.87280           -5.37510           -7.49430
C              7.48860           -2.46370           -6.65640
C              6.67910           -3.51020           -7.03740
C              2.47260           -4.86760           -8.89010
C              0.74090            1.32640          -10.32130
C              1.85340           -2.48870           -9.84230
C              1.49170           -1.19430          -10.14130
C              0.74150            5.61840           -8.75940
C              2.47360            9.44140           -3.67980
C              1.49040            7.43330           -7.00030
C              1.85280            8.23220           -5.93890
C              4.87400            8.93360           -2.28450
C              8.74610            3.92430           -4.10870
C              6.67960            7.21090           -3.13500
C              7.48880            6.16390           -3.51600
C             -1.94250            4.79660           -9.05720
C             -6.47590            6.70910           -4.67410
C             -3.90480            5.78480           -7.59980
C             -4.85250            6.18410           -6.68410
C             -5.73470            8.34670           -2.49830
C              0.53130           10.26120           -1.80310
C             -3.36080            9.47840           -2.30950
C             -2.05120            9.87830           -2.16420
C             -1.94100            2.14540          -10.02250
C             -6.47620           -2.13550           -7.89500