! RHF cc-pVDZ RIJCOSX TightSCF
%pal nprocs 8 end
%maxcore 2000
* xyz 0 1
C              0.85540           -0.65630           -7.94610
C             -0.40890           -1.08210           -7.93680
C             -1.19990           -0.00780           -7.92830
C             -0.42660            1.07820           -7.93810
C              0.84530            0.67690           -7.94920
C              7.22930           -1.01500           -3.30140
C              6.65220           -0.60880           -4.43240
C              6.64120            0.72520           -4.42800
C              7.21560            1.14190           -3.29900
C              7.57980            0.06510           -2.60050
C              1.24800           -7.21530           -3.24850
C              1.45090           -6.54630           -4.38420
C              2.71540           -6.12450           -4.39270
C              3.29260           -6.53340           -3.26260
C              2.38760           -7.20950           -2.55440
C             -6.49460           -3.44310           -3.18100
C             -5.80260           -3.43850           -4.32120
C             -5.01150           -4.51150           -4.32580
C             -5.21480           -5.17760           -3.18920
C             -6.13280           -4.51970           -2.48050
C             -5.29980            5.08590           -3.19000
C             -5.08840            4.42040           -4.32600
C             -5.86360            3.33580           -4.31730
C             -6.55300            3.33220           -3.17620
C             -6.20720            4.41430           -2.47830
C              3.18060            6.58860           -3.26310
C              2.60610            6.17350           -4.39240
C              1.33520            6.57580           -4.37920
C              1.12560            7.23920           -3.24220
C              2.26600            7.24990           -2.55130
C             -0.85600            0.65540            7.94400
C             -0.84260           -0.67740            7.94440
C              0.42830           -1.07830            7.93680
C              1.20210            0.00830            7.93020
C              0.40860            1.08090            7.93610
C             -7.57980           -0.06600            2.60040
C             -7.21200           -1.14060            3.30040
C             -6.64220           -0.72510            4.43150
C             -6.65330            0.60880            4.43120
C             -7.23310            1.01590            3.30010
C             -2.26560           -7.25140            2.55250
C             -1.12530           -7.23750            3.24570
C             -1.33960           -6.57320            4.38170
C             -2.61150           -6.17450            4.39070
C             -3.18440           -6.59390            3.26240
C              6.20840           -4.41500            2.47930
C              6.55190           -3.33180            3.17920
C              5.86120           -3.34010            4.31980
C              5.08930           -4.42690            4.32440
C              5.30380           -5.09190            3.18930
C              6.13240            4.51990            2.48060
C              5.21290            5.17580            3.19150
C              5.01290            4.50680            4.32750
C              5.80750            3.43660            4.31870
C              6.49980            3.44420            3.17930
C             -2.38970            7.21190            2.55650
C             -3.29340            6.53480            3.26780
C             -2.71530            6.12990            4.39850
C             -1.45020            6.55310            4.38360
C             -1.24920            7.22290            3.24870
C              1.61330           -2.73290           -7.31550
C              2.25990           -4.63400           -6.07980
C              5.76810           -2.69680           -4.79660
C              4.40090           -4.61390           -4.78380
C              5.08330           -0.67630           -6.10860
C              3.06820           -0.69490           -7.32910
C              3.87410           -2.80110           -6.35690
C              4.74230           -3.41540           -5.39780
C              3.18700           -5.17100           -5.18590
C              4.06560           -1.42260           -6.69180
C              1.90540           -1.40470           -7.63250
C              2.62960           -3.43410           -6.67770
C              5.89740           -1.37060           -5.21310
C              0.24240           -3.19160           -7.30370
C              0.88840           -5.09250           -6.06800
C             -3.05840           -5.65060           -4.71930
C             -0.81320           -6.35920           -4.73840
C             -3.74500           -3.63070           -6.02900
C             -2.14430           -2.43910           -7.28330
C             -1.50660           -4.60280           -6.30890
C             -1.81660           -5.61060           -5.34050
C              0.48520           -6.07490           -5.16270
C             -2.49330           -3.61670           -6.63400
C             -0.79420           -2.30820           -7.60960
C             -0.13770           -4.35950           -6.65380
C             -3.96490           -4.67040           -5.12540
C             -3.00320           -1.27640           -7.27570
C             -4.60430           -2.46780           -6.02100
C             -6.34620            1.12410           -4.68880
C             -6.32680           -1.23120           -4.68910
C             -4.64490            2.39080           -6.02060
C             -3.02410            1.22740           -7.27570
C             -4.87780           -0.03970           -6.28000
C             -5.92660           -0.05000           -5.30390
C             -5.65710           -2.38060           -5.10960
C             -4.24800            1.20050           -6.61860
C             -2.48440           -0.01970           -7.59440
C             -4.22760           -1.27030           -6.61830
C             -5.69570            2.28500           -5.10960
C             -2.18430            2.40440           -7.28320
C             -3.80510            3.56790           -6.02720
C             -0.92030            6.34640           -4.73650
C             -3.15290            5.59890           -4.71670
C              0.80220            5.11080           -6.06810
C              0.18920            3.19990           -7.30450
C             -1.58390            4.57910           -6.30790
C             -1.91070            5.58080           -5.33850
C             -4.04250            4.60350           -5.12230
C             -0.21120            4.36040           -6.65390
C             -0.83110            2.29820           -7.61030
C             -2.55340            3.57570           -6.63280
C              0.38300            6.08500           -5.16200
C              3.05620            0.75120           -7.32910
C              5.07200            0.76860           -6.10620
C              4.32090            4.69310           -4.78200
C              5.72240            2.79840           -4.79470
C              2.18110            4.67570           -6.07990
C              1.56810            2.76500           -7.31640
C              3.82650            2.87100           -6.35580
C              4.68370            3.50050           -5.39580
C              5.87470            1.47580           -5.21030
C              2.57190            3.48280           -6.67770
C              1.88180            1.44250           -7.63390
C              4.04120            1.49560           -6.69100
C              3.09670            5.22900           -5.18530
C              6.39610           -3.13810           -3.57090
C              5.02720           -5.05710           -3.55820
C              5.66300           -5.57470            0.57190
C              4.65000           -6.31130           -1.42480
C              7.11530           -3.53570            0.55880
C              7.47040           -2.35450           -1.44980
C              6.34000           -4.53310           -1.54930
C              5.63790           -5.54470           -0.81730
C              4.42350           -6.04100           -2.77410
C              7.07130           -3.53310           -0.83010
C              7.13420           -2.23920           -2.79850
C              6.01040           -4.30620           -2.92420
C              6.43010           -4.57970            1.18130
C              7.43110            2.48430           -1.44910
C              7.05520            3.65860            0.56040
C              4.54020            6.39060           -1.42340
C              5.56590            5.67090            0.57310
C              4.94200            5.14380           -3.55680
C              6.34350            3.24980           -3.56920
C              6.26240            4.64290           -1.54770
C              5.54160            5.64150           -0.81600
C              6.35010            4.69100            1.18270
C              5.93720            4.41120           -2.92270
C              7.09700            2.36470           -2.79850
C              7.01110            3.65570           -0.82870
C              4.31950            6.11630           -2.77380
C              7.84680           -1.18360           -0.69000
C              7.49050           -2.36450            1.31900
C              7.07470            1.23920            3.45460
C              7.09370           -1.11660            3.45400
C              7.45140            2.49330            1.31940
C              7.82720            1.31930           -0.68960
C              7.81710            0.06740            1.42540
C              7.43860            0.06430            2.80630
C              7.16970           -2.27120            2.67400
C              7.81110            1.30230            0.69970
C              7.87530            0.06850           -1.30670
C              7.83060           -1.16730            0.69960
C              7.13310            2.39490            2.67350
C             -1.02820           -7.08380           -3.50570
C             -3.27610           -6.37510           -3.48710
C             -3.54840           -7.10630            0.65120
C             -4.57330           -6.38540           -1.34540
C             -1.16070           -7.85840            0.63040
C              0.06070           -7.84730           -1.38540
C             -2.36120           -7.44570           -1.47420
C             -3.53590           -7.08400           -0.73830
C             -4.39420           -6.09730           -2.69850
C             -1.18010           -7.82690           -0.75880
C              0.05800           -7.50190           -2.73660
C             -2.25550           -7.07290           -2.85280
C             -2.36150           -7.52400            1.25720
C              1.29520           -7.83700           -0.63310
C              0.07370           -7.84710            1.38330
C              3.38570           -6.32000            3.48440
C              1.15200           -7.06640            3.50340
C              4.68240           -6.30630            1.34300
C              3.66960           -7.04280           -0.65350
C              2.48890           -7.40480            1.47120
C              2.37740           -7.03480            2.84960
C              0.07120           -7.50180            2.73570
C              3.65710           -7.02220            0.73560
C              2.49100           -7.48090           -1.25960
C              1.31410           -7.80550            0.75610
C              4.49900           -6.02300            2.69610
C             -7.07440           -1.23970           -3.45210
C             -7.09450            1.11620           -3.45230
C             -7.84720            1.18320            0.69040
C             -7.49110            2.36440           -1.31840
C             -7.82630           -1.31980            0.68940
C             -7.45080           -2.49420           -1.31940
C             -7.81730           -0.06770           -1.42530
C             -7.83110            1.16710           -0.69910
C             -7.17070            2.27170           -2.67270
C             -7.81070           -1.30280           -0.70000
C             -7.13150           -2.39570           -2.67340
C             -7.43900           -0.06430           -2.80620
C             -7.87510           -0.06940            1.30670
C             -7.05510           -3.65900           -0.56010
C             -7.43010           -2.48420            1.44920
C             -4.94120           -5.14700            3.55610
C             -6.34280           -3.25160            3.56930
C             -4.54220           -6.39300            1.42240
C             -5.56700           -5.67230           -0.57370
C             -6.26280           -4.64400            1.54750
C             -5.93720           -4.41250            2.92240
C             -7.09540           -2.36420            2.79880
C             -5.54300           -5.64300            0.81520
C             -6.35100           -4.69140           -1.18290
C             -7.01100           -3.65600            0.82890
C             -4.32130           -6.12030            2.77180
C             -3.38570            6.31720           -3.48350
C             -1.15090            7.06610           -3.50370
C             -1.29610            7.83750            0.63420
C             -0.07460            7.84730           -1.38220
C             -3.66960            7.04300            0.65400
C             -4.68190            6.30520           -1.34240
C             -2.48870            7.40390           -1.47110
C             -1.31470            7.80540           -0.75520
C             -0.07120            7.50270           -2.73390
C             -3.65680            7.02150           -0.73540
C             -4.49790            6.02030           -2.69520
C             -2.37660            7.03340           -2.84980
C             -2.49220            7.48140            1.26090
C             -7.11510            3.53620           -0.55890
C             -7.47060            2.35460            1.45010
C             -5.02810            5.05790            3.55890
C             -6.39640            3.13860            3.57030
C             -4.64960            6.31200            1.42570
C             -5.66220            5.57490           -0.57060
C             -6.33990            4.53370            1.54960
C             -6.01030            4.30740            2.92440
C             -7.13450            2.24060            2.79950
C             -5.63740            5.54530            0.81820
C             -6.42860            4.58130           -1.18060
C             -7.07110            3.53340            0.83020
C             -4.42300            6.04250            2.77530
C              3.54750            7.10400           -0.65120
C              4.57280            6.38350            1.34520
C              1.02890            7.08470            3.50670
C              3.27610            6.37370            3.48590
C             -0.06100            7.84800            1.38630
C              1.16030            7.85810           -0.62980
C              2.36070            7.44490            1.47420
C              2.25490            7.07260            2.85260
C              4.39310            6.09570            2.69880
C              1.17960            7.82660            0.75920
C              2.36140            7.52270           -1.25650
C              3.53530            7.08220            0.73830
C             -0.05830            7.50410            2.73780
C             -3.06750            0.69500            7.32650
C             -5.08310            0.67610            6.10610
C             -4.39980            4.61690            4.78410
C             -5.76780            2.69740            4.79540
C             -2.26090            4.63540            6.08200
C             -1.61430            2.73380            7.31510
C             -3.87420            2.80180            6.35560
C             -4.74180            3.41740            5.39640
C             -5.89760            1.37220            5.21070
C             -2.63050            3.43500            6.67780
C             -1.90490            1.40580            7.63080
C             -4.06530            1.42270            6.68930
C             -3.18600            5.17440            5.18880
C             -3.05510           -0.75080            7.32650
C             -5.07150           -0.76930            6.10450
C             -4.32180           -4.69340            4.78170
C             -5.72230           -2.80030            4.79460
C             -2.18030           -4.67510            6.07840
C             -1.56680           -2.76400            7.31410
C             -3.82620           -2.87230            6.35380
C             -4.68420           -3.50080            5.39550
C             -5.87510           -1.47700            5.20980
C             -2.57070           -3.48190            6.67620
C             -1.88070           -1.44170            7.63080
C             -4.04000           -1.49600            6.68900
C             -3.09720           -5.22880            5.18490
C             -0.18780           -3.19860            7.30240
C             -0.80120           -5.10990            6.06610
C              3.15530           -5.59960            4.71710
C              0.92170           -6.34650            4.73590
C              3.80690           -3.56850            6.02750
C              2.18620           -2.40490            7.28280
C              1.58540           -4.57890            6.30700
C              1.91250           -5.58090            5.33810
C             -0.38170           -6.08520            5.16010
C              2.55510           -3.57610            6.63260
C              0.83390           -2.29770            7.60900
C              0.21240           -4.35950            6.65190
C              4.04500           -4.60380            5.12360
C              3.02510           -1.22740            7.27570
C              4.64620           -2.39110            6.02010
C              6.32590            1.23170            4.69120
C              6.34580           -1.12250            4.69060
C              4.60380            2.46880            6.02070
C              3.00340            1.27660            7.27540
C              4.87830            0.04030            6.28050
C              5.92710            0.05100            5.30510
C              5.69760           -2.28520            5.10860
C              4.22770            1.27100            6.61820
C              2.48550            0.02050            7.59480
C              4.24900           -1.20050            6.61840
C              5.65680            2.38250            5.11030
C              2.14310            2.43860            7.28290
C              3.74350            3.63100            6.02770
C              0.81030            6.36040            4.73900
C              3.05590            5.65100            4.71850
C             -0.89000            5.09420            6.07000
C             -0.24360            3.19250            7.30350
C              1.50500            4.60320            6.30860
C              1.81410            5.61120            5.34020
C              3.96320            4.67120            5.12350
C              0.13640            4.36060            6.65430
C              0.79160            2.30830            7.60900
C              2.49170            3.61660            6.63310
C             -0.48860            6.07670            5.16460
*
