! RHF cc-pVDZ RIJCOSX TightSCF
%pal nprocs 8 end
%maxcore 2000
* xyz 0 1
C              6.68010           -0.85150          -10.17320
C              5.58440           -1.22940          -10.78030
C              4.94100           -0.15280          -11.15480
C              5.64040            0.88790          -10.78180
C              6.71730            0.45720          -10.17640
C             12.08890           -1.36780            0.89000
C             12.15650           -0.96880           -0.35440
C             12.18780            0.34000           -0.35510
C             12.14260            0.74690            0.88780
C             12.08290           -0.30830            1.65890
C              4.31160          -10.92950           -3.28500
C              5.05590          -10.29760           -4.15620
C              6.15160           -9.91950           -3.54810
C              6.08680          -10.32110           -2.30440
C              4.94820          -10.94640           -2.14110
C             -5.97710           -5.49080           -9.10870
C             -4.83510           -5.52100           -9.74850
C             -4.19080           -6.59580           -9.36830
C             -4.93600           -7.22810           -8.49820
C             -6.04110           -6.54650           -8.33870
C             -4.55730            7.43260           -8.53570
C             -3.84740            6.75980           -9.40490
C             -4.54660            5.71730           -9.77710
C             -5.68800            5.74880           -9.13660
C             -5.69700            6.81000           -8.37130
C              6.61010            9.98430           -2.35340
C              6.65530            9.57480           -3.59600
C              5.57690           10.00470           -4.20130
C              4.86760           10.68210           -3.33540
C              5.50560           10.66850           -2.19250
C             -6.67950            0.85100           10.17110
C             -6.71270           -0.45780           10.17410
C             -5.63810           -0.88890           10.78380
C             -4.94040            0.15480           11.15430
C             -5.58460            1.22970           10.77910
C            -12.08300            0.30700           -1.65850
C            -12.14260           -0.74780           -0.88500
C            -12.18840           -0.33800            0.35690
C            -12.15550            0.96960            0.35160
C            -12.09130            1.36880           -0.89280
C             -5.50540          -10.66810            2.19190
C             -4.86860          -10.68200            3.33580
C             -5.57920          -10.00630            4.20340
C             -6.65390           -9.57410            3.59350
C             -6.60990           -9.98410            2.35180
C              5.69550           -6.80700            8.37030
C              5.68960           -5.74780            9.13840
C              4.54680           -5.71780            9.77620
C              3.84810           -6.75960            9.40050
C              4.55860           -7.43510            8.53400
C              6.03910            6.54360            8.33880
C              4.93430            7.22770            8.49970
C              4.19160            6.59700            9.37320
C              4.83660            5.52240            9.75100
C              5.97900            5.49020            9.11260
C             -4.94850           10.94510            2.14010
C             -6.08580           10.31760            2.30530
C             -6.15100            9.91920            3.54950
C             -5.05550           10.29910            4.15530
C             -4.31130           10.93240            3.28400
C              7.01240           -2.91970           -9.36090
C              7.07500           -4.93560           -8.19330
C              6.96360           -6.83640           -6.80510
C              6.68290           -8.54950           -5.24840
C             11.61870           -3.01890           -1.09870
C             10.63740           -5.01200           -1.80280
C              9.37890           -6.88800           -2.47250
C              7.89020           -8.57480           -3.08310
C             11.73470           -1.01890           -2.56010
C             10.87040           -1.01220           -4.72540
C              9.72300           -0.98740           -6.78330
C              8.33710           -0.94530           -8.65580
C              8.63980           -3.08100           -7.60490
C              9.96240           -3.13560           -5.59270
C             10.97870           -3.13110           -3.40960
C              8.64340           -5.10220           -6.29440
C              9.84610           -5.12820           -4.13730
C              8.41260           -6.95650           -4.77480
C             11.13950           -3.75580           -2.13940
C             10.01030           -5.70300           -2.83400
C              8.62810           -7.49920           -3.47550
C              6.99550           -9.04730           -4.00890
C             11.25650           -1.74790           -3.60630
C             10.24180           -1.73590           -5.73230
C              8.96710           -1.69910           -7.71300
C              7.43000           -1.61440           -9.43780
C              7.63780           -3.68070           -8.42050
C              9.13460           -3.79890           -6.52440
C             10.31260           -3.82440           -4.41140
C              7.61540           -5.65150           -7.13020
C              9.02030           -5.75070           -5.09840
C              7.41540           -7.47370           -5.65040
C             11.91670           -1.71170           -1.39110
C              5.82170           -3.32840          -10.01850
C              5.86670           -5.35160           -8.85960
C              5.75540           -7.25170           -7.47190
C              5.49300           -8.95850           -5.90670
C             -2.40300           -7.84550           -8.83310
C             -0.49410           -8.84330           -7.94320
C              1.44360           -9.61940           -6.84970
C              3.33650          -10.14400           -5.59460
C             -2.28590           -5.84480          -10.29600
C             -0.26020           -4.84490          -10.86630
C              1.78850           -3.71950          -11.16240
C              3.78220           -2.51450          -11.17000
C              3.87900           -4.72000          -10.23270
C              1.80900           -5.94260          -10.09190
C             -0.29870           -7.01340           -9.63110
C              3.83980           -6.75630           -8.94470
C              1.69240           -7.93470           -8.63560
C              3.65240           -8.59590           -7.40050
C             -1.04520           -7.95040           -8.86080
C              0.89410           -8.84140           -7.86260
C              2.82160           -9.49920           -6.67830
C              4.64660           -9.85620           -5.30600
C             -0.92800           -5.94330          -10.32850
C              1.12610           -4.87470          -10.76230
C              3.16040           -3.69900          -10.91760
C              5.08010           -2.42410          -10.73580
C              5.20800           -4.51730           -9.76140
C              3.18830           -5.84670           -9.80550
C              1.08420           -7.00150           -9.50250
C              5.17040           -6.49330           -8.47940
C              3.07390           -7.79830           -8.37890
C              4.98620           -8.30990           -6.99120
C             -2.93000           -6.82210           -9.58040
C              3.08510           -1.34690          -11.57880
C              1.08000           -2.53540          -11.57750
C             -0.96880           -3.66080          -11.28210
C             -2.98530           -4.67890          -10.70420
C             -4.89770            3.59280          -10.41640
C             -5.09320            1.28500          -10.67710
C             -5.15390           -1.07030          -10.67150
C             -5.07780           -3.38350          -10.39940
C             -2.74040            4.77750          -10.72790
C             -0.78070            3.65210          -11.29870
C              1.20790            2.42170          -11.58780
C              3.14890            1.13130          -11.58360
C              1.08430           -0.05560          -11.86980
C             -0.94740            1.23160          -11.74880
C             -2.96980            2.45280          -11.27890
C             -1.01120           -1.23780          -11.74360
C             -3.09520            0.05240          -11.43930
C             -3.09370           -2.35050          -11.26770
C             -4.33360            2.43830          -10.86850
C             -4.45910            0.08940          -10.99740
C             -4.45490           -2.26200          -10.85740
C             -4.31080           -4.52080          -10.38850
C             -2.16930            3.62680          -11.18070
C             -0.18240            2.43730          -11.61370
C              1.79880            1.17120          -11.75820
C              3.70260           -0.12240          -11.54240
C              1.73450           -1.31760          -11.75310
C             -0.30400           -0.02070          -11.85090
C             -2.34560            1.24320          -11.55310
C             -0.30900           -2.47990          -11.60310
C             -2.40810           -1.17590          -11.54740
C             -2.35420           -3.56300          -11.16380
C             -4.07240            4.68900          -10.41140
C              3.90590            2.26260          -11.17970
C              1.97640            3.56990          -11.17750
C             -0.01210            4.80030          -10.88840
C             -1.98330            5.90810          -10.32290
C              3.85400            9.93170           -5.64110
C              1.93610            9.49920           -6.89420
C             -0.03930            8.81910           -7.98450
C             -1.99710            7.91830           -8.87040
C              5.94650            8.63530           -5.94780
C              6.12160            6.91050           -7.50440
C              6.13490            5.00050           -8.88350
C              5.98480            2.97740          -10.03250
C              4.11590            4.46540          -10.25320
C              4.18260            6.50650           -8.97540
C              4.08920            8.36050           -7.44010
C              2.11110            5.79390          -10.11850
C              2.09740            7.79550           -8.67210
C              0.06120            6.97400           -9.66370
C              3.30630            9.30890           -6.72190
C              1.34710            8.74580           -7.90350
C             -0.63580            7.95210           -8.89810
C             -2.57670            6.92120           -9.61350
C              5.40670            8.00860           -7.02930
C              5.49780            6.17820           -8.50840
C              5.43300            4.19740           -9.78110
C              5.19820            2.10810          -10.74440
C              3.34570            3.47900          -10.93310
C              3.48350            5.62810           -9.83170
C              3.47010            7.58910           -8.41510
C              1.37390            4.75930          -10.78390
C              1.44130            6.89100           -9.53460
C             -0.62230            5.93440          -10.35630
C              5.14810            9.57790           -5.35060
C              8.37390            0.47430           -8.65910
C              9.76040            0.45360           -6.78650
C             10.90780            0.42850           -4.72860
C             11.77150            0.40060           -2.56280
C              8.32210            8.14290           -3.12300
C              9.72110            6.38460           -2.50410
C             10.88130            4.44960           -1.82530
C             11.75830            2.41190           -1.11150
C              7.11410            8.16880           -5.28790
C              7.30650            6.43570           -6.83590
C              7.31990            4.52540           -8.21490
C              7.15330            2.51120           -9.37340
C              8.78680            2.59630           -7.61820
C              8.89450            4.62050           -6.31730
C              8.75960            6.49120           -4.80690
C             10.11060            2.59210           -5.60570
C             10.09730            4.59460           -4.16000
C             11.12600            2.54450           -3.42230
C              9.00280            7.02870           -3.51040
C             10.29070            5.16690           -2.85970
C             11.31800            3.16740           -2.15580
C             11.98820            1.08970           -1.39630
C              7.79020            7.05490           -5.68470
C              7.89620            5.21800           -7.15570
C              7.81720            3.24290           -8.43670
C              7.50290            1.18620           -9.44480
C              9.04210            1.19890           -7.71970
C              9.31820            3.29240           -6.54080
C              9.30490            5.25390           -5.12440
C             10.31730            1.17910           -5.73890
C             10.49610            3.26680           -4.42710
C             11.33160            1.14830           -3.61280
C              7.45190            8.65700           -4.05160
C             11.54680           -3.45130            0.25180
C             10.56450           -5.45150           -0.43220
C              9.30600           -7.32750           -1.10220
C              7.81850           -9.00890           -1.73290
C              6.16620           -8.02790            6.54260
C              6.40340           -8.99080            4.43270
C              6.48580           -9.72710            2.19510
C              6.40920          -10.21020           -0.08290
C              7.49140           -6.05410            7.24740
C              9.05200           -5.04310            5.84260
C             10.39220           -3.90310            4.27560
C             11.46050           -2.67730            2.60550
C             10.69240           -4.86520            1.99100
C              9.47070           -6.10570            3.65560
C              7.95890           -7.19000            5.18680
C              9.55620           -6.87720            1.31110
C              8.15140           -8.07200            2.95350
C              8.12640           -8.69060            0.62420
C              6.90220           -8.12050            5.40010
C              7.06520           -8.97300            3.20960
C              7.06650           -9.58950            0.93570
C              6.85440           -9.90450           -1.34410
C              8.23220           -6.13850            6.10790
C              9.69210           -5.05730            4.60860
C             10.90670           -3.86360            2.98100
C             11.77500           -2.56690            1.27530
C             10.99320           -4.64090            0.61720
C              9.95420           -5.99030            2.33440
C              8.57780           -7.16080            3.94370
C              9.86280           -6.59340           -0.06100
C              8.66130           -7.91690            1.64590
C              8.48190           -8.38460           -0.72030
C              6.53440           -7.02480            7.40340
C             11.58290            2.09620            2.59320
C             10.57940            3.38340            4.25790
C              9.30000            4.59830            5.81980
C              7.79350            5.69490            7.22000
C              6.92620            9.86510           -0.13140
C              6.97740            9.39050            2.14950
C              6.85760            8.66990            4.39060
C              6.57150            7.73030            6.50490
C              8.27300            8.58650           -1.77480
C              9.67030            6.83470           -1.13610
C             10.83090            4.89910           -0.45690
C             11.70870            2.85540            0.23600
C             10.92850            4.31830            1.96900
C              9.89750            6.38270            1.27930
C              8.56290            8.26390            0.58440
C              9.77230            5.62800            3.62760
C              8.55580            7.65590            2.91640
C              8.31880            6.79470            5.15410
C              7.55020            9.21730            0.89110
C              7.51730            8.61260            3.16780
C              7.31120            7.77960            5.36220
C              6.88730            6.71470            7.37060
C              8.90210            7.93420           -0.75850
C             10.18890            6.07730           -0.09150
C             11.21730            4.07280            0.59650
C             11.89120            1.96400            1.26270
C             11.09090            3.31140            2.96340
C             10.24920            5.48140            2.30740
C              9.05740            7.46850            1.61000
C              9.93970            4.57380            4.58560
C              8.93450            6.72850            3.91120
C              8.53760            5.73550            6.08030
C              7.35540            9.53190           -1.39190
C             11.45200           -1.52710            3.43810
C             10.38350           -2.73540            5.12030
C              9.04300           -3.87540            6.68740
C              7.48200           -4.90360            8.08010
C              6.31640            3.35110            9.70920
C              6.41200            1.03740            9.97000
C              6.35130           -1.31790            9.97580
C              6.13700           -3.62520            9.72580
C              7.72570            4.55030            8.05780
C              9.23130            3.43660            6.67000
C             10.51070            2.22180            5.10830
C             11.51550            0.95200            3.43190
C             10.66020           -0.26210            5.31580
C              9.50220            1.00720            7.00400
C              8.05140            2.21580            8.50080
C              9.43870           -1.46190            7.01020
C              8.09750           -0.18770            8.64770
C              7.92750           -2.58660            8.51230
C              6.98570            2.19440            9.44540
C              7.00540           -0.15730            9.57670
C              6.86470           -2.50560            9.45660
C              6.51900           -4.75400            9.04600
C              8.40090            3.39860            7.78850
C              9.80180            2.22260            6.30440
C             10.95370            0.97430            4.67220
C             11.75910           -0.29580            2.91570
C             10.89000           -1.51450            4.67820
C              9.91440           -0.24000            6.48730
C              8.60090            1.00790            8.09090
C              9.67550           -2.69410            6.31610
C              8.53830           -1.41070            8.09660
C              8.21560           -3.78930            7.80560
C              6.75690            4.45540            9.02370
C              2.53010          -10.83040           -4.64900
C              0.62490          -10.31700           -5.89030
C             -1.31360           -9.54070           -6.98410
C             -3.20960           -8.53240           -7.88810
C             -5.72700          -10.60660           -0.04290
C             -5.76110          -10.14330           -2.32770
C             -5.64190           -9.42330           -4.56910
C             -5.37410           -8.47320           -6.68060
C             -3.68790          -11.42430            1.10740
C             -1.68300          -11.77700           -0.02730
C              0.37420          -11.83280           -1.17440
C              2.40520          -11.58890           -2.29110
C              0.42380          -11.34320           -3.62250
C             -1.68990          -11.46190           -2.47470
C             -3.77000          -11.22900           -1.28370
C             -1.56520          -10.70670           -4.82430
C             -3.72120          -10.64830           -3.62060
C             -3.52750           -9.76100           -5.85170
C             -5.10390          -10.73070           -1.24790
C             -5.05740          -10.13530           -3.52730
C             -4.86650           -9.29390           -5.71960
C             -4.52400           -8.17830           -7.71560
C             -3.05700          -11.55090           -0.09330
C             -1.01240          -11.75530           -1.24540
C              1.04800          -11.66220           -2.38280
C              3.05390          -11.21270           -3.43990
C              1.17370          -10.90120           -4.75010
C             -0.95990          -11.22970           -3.66090
C             -3.07170          -11.17250           -2.48250
C             -0.76370          -10.25190           -5.92300
C             -2.94970          -10.43280           -4.78320
C             -2.69350           -9.35300           -6.93190
C             -4.98970          -10.99580            1.04670
C              3.09580          -11.60350           -1.05110
C              1.07610          -11.84740            0.08430
C             -0.98210          -11.79180            1.23170
C             -2.99800          -11.43850            2.34810
C              2.76740           -8.64870            7.92990
C              0.82120           -9.56320            7.02920
C             -1.15420          -10.24420            5.93940
C             -3.08430          -10.66520            4.70290
C              4.93160           -8.70660            6.72020
C              5.15020           -9.67910            4.61340
C              5.23260          -10.41530            2.37680
C              5.17430          -10.88770            0.09410
C              3.18830          -11.40220            1.33790
C              3.16930          -10.80850            3.67130
C              3.02130           -9.90150            5.89870
C              1.09830          -11.52160            2.53030
C              1.01280          -10.75050            4.87510
C             -1.00690          -11.28980            3.67680
C              2.20940           -9.44610            6.97660
C              0.23590          -10.25020            5.97150
C             -1.73300          -10.80510            4.80220
C             -3.62700          -11.02550            3.49540
C              4.38240           -9.50460            5.76290
C              4.53000          -10.36550            3.57550
C              4.54620          -10.97360            1.29960
C              4.41830          -11.24270           -0.99380
C              2.45950          -11.69250            0.14930
C              2.49310          -11.30420            2.53580
C              2.40950          -10.54840            4.83260
C              0.40680          -11.78590            1.30170
C              0.38050          -11.24710            3.71440
C             -1.64660          -11.58190            2.43860
C              4.09840           -8.36460            7.75410
C             -6.31640           -3.35120           -9.70680
C             -6.41180           -1.03690           -9.96890
C             -6.35120            1.31920           -9.97460
C             -6.13690            3.62570           -9.72450
C            -11.45170            1.52660           -3.43740
C            -10.38280            2.73510           -5.12010
C             -9.04280            3.87560           -6.68740
C             -7.48200            4.90440           -8.08030
C            -11.51510           -0.95260           -3.43150
C            -10.51060           -2.22220           -5.10800
C             -9.23130           -3.43700           -6.66970
C             -7.72580           -4.55080           -8.05730
C             -8.05110           -2.21550           -8.50030
C             -9.50190           -1.00780           -7.00370
C            -10.65970            0.26100           -5.31530
C             -8.09700            0.18840           -8.64740
C             -9.43800            1.46140           -7.00980
C             -7.92730            2.58730           -8.51210
C            -10.88930            1.51400           -4.67780
C             -9.67480            2.69400           -6.31600
C             -8.21550            3.79000           -7.80570
C             -6.51850            4.75520           -9.04510
C            -10.95350           -0.97480           -4.67170
C             -9.80180           -2.22300           -6.30400
C             -8.40080           -3.39870           -7.78820
C             -6.75600           -4.45580           -9.02240
C             -6.98520           -2.19400           -9.44470
C             -8.60050           -1.00740           -8.09050
C             -9.91390            0.23980           -6.48690
C             -7.00480            0.15810           -9.57640
C             -8.53780            1.41140           -8.09630
C             -6.86440            2.50650           -9.45630
C            -11.75870            0.29480           -2.91520
C             -7.79440           -5.69560           -7.21970
C             -9.30030           -4.59890           -5.81950
C            -10.57950           -3.38380           -4.25760
C            -11.58280           -2.09650           -2.59300
C             -8.27070           -8.58630            1.77400
C             -9.67040           -6.83400            1.13650
C            -10.83130           -4.89940            0.45770
C            -11.70940           -2.85480           -0.23510
C             -6.92580           -9.86500            0.12950
C             -6.97750           -9.39060           -2.15080
C             -6.85820           -8.67130           -4.39100
C             -6.57270           -7.73190           -6.50570
C             -8.31910           -6.79650           -5.15380
C             -8.55640           -7.65650           -2.91620
C             -8.56270           -8.26350           -0.58500
C             -9.77270           -5.62830           -3.62740
C             -9.89800           -6.38300           -1.27900
C            -10.92870           -4.31820           -1.96870
C             -8.90150           -7.93330            0.75830
C            -10.18910           -6.07710            0.09140
C            -11.21750           -4.07250           -0.59610
C            -11.89110           -1.96430           -1.26270
C             -7.55020           -9.21700           -0.89240
C             -7.51800           -8.61300           -3.16880
C             -7.31180           -7.78120           -5.36280
C             -6.88910           -6.71580           -7.37100
C             -8.53820           -5.73640           -6.07970
C             -8.93550           -6.72910           -3.91100
C             -9.05810           -7.46820           -1.61020
C             -9.93990           -4.57420           -4.58530
C            -10.24950           -5.48120           -2.30690
C            -11.09100           -3.31160           -2.96320
C             -7.35410           -9.53210            1.38950
C             -2.76870            8.64860           -7.92880
C             -0.82110            9.56250           -7.02870
C              1.15440           10.24260           -5.93850
C              3.08370           10.66380           -4.69960
C             -3.09600           11.60300            1.05240
C             -1.07530           11.84770           -0.08350
C              0.98190           11.79260           -1.23070
C              2.99760           11.44010           -2.34590
C             -5.17550           10.88610           -0.09500
C             -5.23220           10.41480           -2.37640
C             -5.15040            9.67880           -4.61420
C             -4.93250            8.70650           -6.72110
C             -3.02130            9.90130           -5.89790
C             -3.16930           10.80790           -3.67120
C             -3.18790           11.40150           -1.33760
C             -1.01280           10.74990           -4.87470
C             -1.09850           11.52170           -2.52940
C              1.00660           11.28920           -3.67630
C             -2.45930           11.69180           -0.14860
C             -0.40690           11.78590           -1.30140
C              1.64610           11.58200           -2.43810
C              3.62620           11.02590           -3.49280
C             -4.54550           10.97280           -1.29950
C             -4.53000           10.36480           -3.57580
C             -4.38270            9.50430           -5.76390
C             -4.09940            8.36370           -7.75500
C             -2.20940            9.44580           -6.97630
C             -2.40930           10.54800           -4.83240
C             -2.49310           11.30370           -2.53570
C             -0.23580           10.24930           -5.97100
C             -0.38090           11.24650           -3.71380
C              1.73270           10.80360           -4.80130
C             -4.41860           11.24110            0.99270
C             -7.49150            6.05500           -7.24810